c Output_time 26.03.2020 18:13:09_+0100 1585242789505899631
c ** Program information **
c program_name                          "QBRG_debug"
c version                               "0.3.20"
c date                                  "25.3.2020"
c gid_id                                "673970833836058123f633335630c185360d632e"
c author                                "Oliver Kullmann"
c url                                   "https://github.com/OKullmann/oklibrary/blob/master/Satisfiability/Transformers/Generators/Random/QBRG.cpp"
c ** Machine information **
c machine_name                          "chyna-Lenovo-G50-70"
c bogomips                              3791.08
c ** Compilation information **
c compiler_version                      "g++ 7.5.0"
c compilation_date                      "Mar_26_2020 11:16:30"
c compilation_options                   "--std=c++17 -pedantic -fmax-errors=5 -Wall -Wextra -g -D_GLIBCXX_DEBUG"
c NDEBUG                                0
c OPTIMIZE                              0
c ** Parameters **
c command-line                          "./QBRG_debug" "e40 a40 40" "125*1,1|2-2,1|3-3,1" "" "1,t" ""
c output                                "QuBlRaGe_120_125_1585242789499095130.qdimacs"
c options                               "filtered,renamed"
c num_quantifier_blocks                 3
c  quantifier_blocks                    1:e1-40 2:a41-80 3:e81-120
c num_clause-blocks                     1
c  clause-blocks                        125 * {1-40,1,1/2} | {41-80,1,1/2} | {81-120,1,1/2}
c num_e-seeds                           30+2=32
c  e-seeds                              1 0 1 0 4 120 2 40 1 40 0 40 1 125 3 1 1 1 1 2 2 2 1 1 2 3 3 1 1 2 1 1585242789499094727
p cnf 115 125
e 1 2 3 4 5 6 7 8 9 10 11 12 13 14 15 16 17 18 19 20 21 22 23 24 25 26 27 28 29 30 31 32 33 34 35 36 37 38 39 0
a 40 41 42 43 44 45 46 47 48 49 50 51 52 53 54 55 56 57 58 59 60 61 62 63 64 65 66 67 68 69 70 71 72 73 74 75 76 77 0
e 78 79 80 81 82 83 84 85 86 87 88 89 90 91 92 93 94 95 96 97 98 99 100 101 102 103 104 105 106 107 108 109 110 111 112 113 114 115 0
23 45 -78 0
-5 49 -78 0
-38 67 -78 0
-26 76 -78 0
-30 -48 78 0
7 -61 78 0
34 -61 78 0
20 65 78 0
13 -53 -79 0
33 69 -79 0
-4 41 79 0
14 -69 79 0
-8 -42 -80 0
10 53 -80 0
-34 61 -80 0
-24 58 80 0
30 -72 80 0
3 -53 -81 0
-19 69 -81 0
31 -41 81 0
18 49 81 0
-3 -75 81 0
37 -55 82 0
12 71 82 0
2 43 -83 0
14 -57 -83 0
-19 72 -83 0
-8 46 83 0
18 77 83 0
2 42 -84 0
-6 -70 84 0
29 -70 84 0
-36 46 -85 0
29 58 -85 0
31 -61 -86 0
15 -77 -86 0
-9 57 86 0
-16 -50 -87 0
17 -57 -88 0
36 -65 88 0
20 -74 88 0
-39 69 -89 0
-4 43 89 0
38 46 89 0
-6 65 89 0
28 -68 89 0
9 71 -90 0
10 75 -90 0
3 -67 90 0
10 68 -91 0
-21 -72 -91 0
-9 -77 -91 0
25 -43 91 0
20 52 91 0
11 -73 91 0
-14 61 92 0
-38 72 92 0
-4 53 93 0
-27 74 -94 0
-29 56 94 0
-36 -63 -95 0
-31 69 -95 0
-18 -43 95 0
35 -61 95 0
-14 -61 -96 0
18 -52 -97 0
-27 64 -97 0
30 -72 -97 0
4 63 -98 0
-4 -67 -98 0
7 -53 98 0
31 -44 -99 0
-12 54 -99 0
-36 57 99 0
-27 -43 -100 0
-1 74 -100 0
-8 56 100 0
7 -60 100 0
-20 -47 101 0
17 52 101 0
-17 -58 -102 0
-14 59 -102 0
2 -61 102 0
-18 -68 -103 0
27 -69 -103 0
26 -71 -103 0
-32 76 -103 0
-13 56 103 0
-28 60 103 0
-8 -73 103 0
-33 46 -104 0
-10 -62 -104 0
30 -54 104 0
-29 -73 104 0
-22 50 -105 0
21 -72 -105 0
-1 73 -105 0
-5 45 105 0
-10 -50 -106 0
-4 -66 106 0
-27 -73 106 0
-17 -43 -107 0
-30 -70 -107 0
-9 51 107 0
-28 58 107 0
-13 74 108 0
-18 -49 109 0
-39 -58 109 0
2 68 -110 0
-24 56 -111 0
-5 -76 111 0
22 45 112 0
12 -58 -113 0
30 -58 -113 0
7 48 113 0
17 -57 113 0
12 -48 -114 0
-27 -54 -114 0
23 -70 -114 0
11 -75 -114 0
-35 40 114 0
17 42 114 0
15 69 114 0
-13 -51 115 0
-38 -54 115 0
